; benchmark generated from python API
(set-info :status unknown)
(declare-fun x4 () Real)
(declare-fun x3 () Real)
(declare-fun bool.b1 () Bool)
(declare-fun bool.b0 () Bool)
(declare-fun bool.b2 () Bool)
(declare-fun bool.b31 () Bool)
(declare-fun x5 () Real)
(assert
 (forall ((?lambda Real) )(let ((?x26295 (- 1.0)))
 (let ((?x7736 (* ?x26295 (+ x4 (* (/ 5.0 16.0) ?lambda)))))
 (let (($x16852 (<= ?x7736 (- 15.0))))
 (let (($x9394 (and (not (<= (* 1.0 (+ x3 (* (/ 1.0 2.0) ?lambda))) 242.0)) $x16852)))
 (let (($x12967 (<= ?x7736 (- 20.0))))
 (let (($x9157 (and (not (<= (* 1.0 (+ x3 (* (/ 1.0 2.0) ?lambda))) 227.0)) $x12967)))
 (let (($x17598 (exists ((?lambdaprime Real) )(! (let (($x29993 (not bool.b31)))
 (let ((?x2361 (+ x3 (* (/ 1.0 2.0) ?lambdaprime))))
 (let ((?x26295 (- 1.0)))
 (let ((?x9028 (* ?x26295 ?x2361)))
 (let ((?x7736 (* ?x26295 (+ x4 (* (/ 5.0 16.0) ?lambdaprime)))))
 (let (($x16852 (<= ?x7736 (- 15.0))))
 (let (($x2426 (not $x16852)))
 (let (($x16051 (and (not (and $x2426 (not (<= ?x9028 (/ (- 475.0) 2.0))))) (and $x29993 (and (not bool.b2) (and bool.b0 (not bool.b1)))))))
 (let (($x393 (and (not (and $x2426 (not (<= ?x9028 (/ (- 445.0) 2.0))))) (and bool.b31 (and (not bool.b2) (and (not bool.b0) bool.b1))))))
 (let (($x3888 (and (not (and $x2426 (not (<= ?x9028 (- 235.0))))) (and $x29993 (and bool.b2 (and (not bool.b0) bool.b1))))))
 (let (($x1720 (not (<= ?x9028 (/ (- 445.0) 2.0)))))
 (let (($x6586 (and (not (and (not (<= ?x7736 (- 20.0))) $x1720)) (and $x29993 (and (not bool.b2) (and (not bool.b0) bool.b1))))))
 (let (($x18647 (and (not (<= (* ?x26295 (+ x5 (* (/ 1.0 10.0) ?lambdaprime))) (- 3.0))) (and (and (and (not $x6586) (not $x3888)) (not $x393)) (not $x16051)))))
 (and (and (<= 0.0 ?lambdaprime) (<= ?lambdaprime ?lambda)) (not $x18647))))))))))))))) :qid k!22))
 ))
 (or (or $x17598 (< ?lambda 0.0)) (and (not $x9157) (not $x9394)))))))))))
 )
(check-sat)
